33D32945 STP File, STP Format Version 1.0

SECTION Comments
Name "shell_n13_d3_s11"
Problem "Euclidean Steiner Tree Problem"
Remark "Generated with STPGenerator. 3 dimensions."
END

SECTION Graph
Nodes 13
END

SECTION Coordinates
DDD 0 0.9117608161 0.0566709337 -0.4067930918
DDD 1 0.0081678514 0.9376753835 -0.3474164092
DDD 2 -0.1177965737 -0.6379842551 0.7609862400
DDD 3 -0.2379133041 -0.9347382580 -0.2639349328
DDD 4 0.0351790588 0.9559880568 -0.2912889785
DDD 5 0.2212525028 0.6510141959 -0.7261045701
DDD 6 -0.1311481221 0.6590963913 0.7405350208
DDD 7 -0.8738710149 -0.3740228173 -0.3105742768
DDD 8 0.8633111412 -0.4044487960 -0.3018526875
DDD 9 0.7107641374 0.6754398682 -0.1964569304
DDD 10 -0.7465112849 0.5682384019 -0.3461589522
DDD 11 0.9891979715 0.0869291958 -0.1180283361
DDD 12 0.1394670720 0.4984260499 0.8556403500
END
